(set-logic ALL)
(declare-fun A () String)
(assert (= (str.++  "gcfedcedggeedcfedgfcgbabgcg" A "gacaedgdeaeddafdcdefgbafdabfeaddbgfeddefadaeddcdaegbbbccdbffdfbefbdgcdbfggfcdffgfcabebdgabdg")  (str.++  "gcfedcedggeedcfedgfcgbabgcgdccffccddcffgacaedgdeaeddafdcdefgbafdabfeaddbgfeddefadaeddcdaegbbbccdbffdfbefbdgcdbfggfcdffgfcabebdgabdg" "") ))
(check-sat)
(get-model)
